(set-logic QF_S)
(declare-fun var0 () String)
(assert (RegexIn var0 (RegexConcat (RegexStar (RegexUnion (Str2Reg "000") (Str2Reg "1"))) (RegexConcat (RegexUnion (RegexUnion (Str2Reg "22") (Str2Reg "33")) (RegexUnion (Str2Reg "4") (Str2Reg "555"))) (RegexConcat (RegexStar (RegexStar (Str2Reg "6"))) (RegexConcat (RegexUnion (RegexUnion (Str2Reg "777") (Str2Reg "888")) (RegexUnion (Str2Reg "99") (Str2Reg "aa"))) (RegexConcat (RegexPlus (RegexUnion (Str2Reg "bbb") (Str2Reg "ccc"))) (RegexConcat (RegexUnion (RegexPlus (Str2Reg "dd")) (RegexPlus (Str2Reg "e"))) (RegexConcat (RegexUnion (RegexPlus (Str2Reg "ff")) (RegexPlus (Str2Reg "ggg"))) (RegexConcat (RegexStar (RegexUnion (Str2Reg "hhh") (Str2Reg "i"))) (RegexConcat (RegexStar (RegexPlus (Str2Reg "jj"))) (RegexConcat (RegexStar (RegexPlus (Str2Reg "k"))) (RegexConcat (RegexUnion (RegexPlus (Str2Reg "lll")) (RegexPlus (Str2Reg "mm"))) (RegexConcat (RegexUnion (RegexUnion (Str2Reg "nn") (Str2Reg "oo")) (RegexUnion (Str2Reg "p") (Str2Reg "qqq"))) (RegexConcat (RegexUnion (RegexPlus (Str2Reg "r")) (RegexPlus (Str2Reg "s"))) (RegexConcat (RegexUnion (RegexUnion (Str2Reg "tt") (Str2Reg "uu")) (RegexUnion (Str2Reg "v") (Str2Reg "w"))) (RegexConcat (RegexUnion (RegexUnion (Str2Reg "x") (Str2Reg "yyy")) (RegexUnion (Str2Reg "z") (Str2Reg "A"))) (RegexConcat (RegexUnion (RegexUnion (Str2Reg "BB") (Str2Reg "C")) (RegexUnion (Str2Reg "D") (Str2Reg "EE"))) (RegexConcat (RegexStar (RegexStar (Str2Reg "FF"))) (RegexConcat (RegexUnion (RegexUnion (Str2Reg "G") (Str2Reg "HH")) (RegexUnion (Str2Reg "II") (Str2Reg "J"))) (RegexConcat (RegexStar (RegexUnion (Str2Reg "KKK") (Str2Reg "LL"))) (RegexConcat (RegexPlus (RegexStar (Str2Reg "M"))) (RegexConcat (RegexPlus (RegexStar (Str2Reg "NN"))) (RegexConcat (RegexStar (RegexPlus (Str2Reg "OOO"))) (RegexConcat (RegexPlus (RegexPlus (Str2Reg "PP"))) (RegexConcat (RegexStar (RegexPlus (Str2Reg "QQ"))) (RegexStar (RegexUnion (Str2Reg "R") (Str2Reg "SSS")))))))))))))))))))))))))))))
(check-sat)